NAME: X120-FSMF
COMMENT: Generated by Uchoa, Pecin, Pessoa, Poggi, Subramanian, and Vidal (2013). Modified by Sadykov, Pessoa and Uchoa (2017). Converted to PyVRP's VRPLIB dialect.
TYPE: HFVRP
DIMENSION: 120
VEHICLES: 595
EDGE_WEIGHT_TYPE: EUC_2D
NODE_COORD_SECTION
1	0	0
2	927	318
3	319	475
4	471	281
5	894	615
6	712	832
7	677	210
8	336	967
9	490	360
10	367	685
11	153	169
12	799	63
13	247	455
14	492	585
15	131	701
16	309	721
17	210	256
18	511	753
19	447	796
20	394	856
21	131	13
22	181	425
23	892	585
24	161	651
25	964	365
26	82	353
27	706	842
28	793	53
29	364	841
30	126	306
31	86	477
32	51	277
33	192	360
34	52	568
35	682	45
36	778	300
37	10	737
38	928	438
39	95	240
40	391	368
41	586	170
42	645	731
43	381	396
44	387	491
45	388	753
46	429	276
47	547	989
48	840	945
49	88	969
50	331	421
51	55	132
52	904	771
53	63	190
54	731	528
55	320	84
56	308	276
57	891	182
58	836	473
59	209	741
60	864	533
61	852	600
62	180	150
63	544	140
64	956	881
65	432	487
66	129	968
67	597	962
68	51	423
69	827	605
70	776	619
71	354	297
72	311	129
73	552	106
74	24	318
75	148	944
76	502	869
77	396	492
78	815	500
79	425	338
80	178	511
81	168	274
82	775	603
83	481	465
84	281	777
85	216	211
86	784	740
87	127	992
88	544	117
89	92	170
90	846	755
91	614	326
92	180	372
93	720	252
94	262	291
95	171	186
96	868	613
97	291	119
98	427	974
99	481	557
100	403	645
101	819	502
102	915	919
103	581	85
104	527	743
105	953	893
106	955	912
107	269	924
108	216	84
109	601	952
110	441	439
111	170	949
112	614	92
113	439	212
114	413	509
115	545	336
116	50	806
117	166	86
118	658	870
119	122	511
120	178	170
DEMAND_SECTION
1	0
2	1
3	1
4	1
5	1
6	1
7	1
8	1
9	1
10	1
11	1
12	1
13	1
14	1
15	1
16	1
17	1
18	1
19	1
20	1
21	1
22	1
23	1
24	1
25	1
26	1
27	1
28	1
29	1
30	1
31	1
32	1
33	1
34	1
35	1
36	1
37	1
38	1
39	1
40	1
41	1
42	1
43	1
44	1
45	1
46	1
47	1
48	1
49	1
50	1
51	1
52	1
53	1
54	1
55	1
56	1
57	1
58	1
59	1
60	1
61	1
62	1
63	1
64	1
65	1
66	1
67	1
68	1
69	1
70	1
71	1
72	1
73	1
74	1
75	1
76	1
77	1
78	1
79	1
80	1
81	1
82	1
83	1
84	1
85	1
86	1
87	1
88	1
89	1
90	1
91	1
92	1
93	1
94	1
95	1
96	1
97	1
98	1
99	1
100	1
101	1
102	1
103	1
104	1
105	1
106	1
107	1
108	1
109	1
110	1
111	1
112	1
113	1
114	1
115	1
116	1
117	1
118	1
119	1
120	1
CAPACITY_SECTION
1	9
2	9
3	9
4	9
5	9
6	9
7	9
8	9
9	9
10	9
11	9
12	9
13	9
14	9
15	9
16	9
17	9
18	9
19	9
20	9
21	9
22	9
23	9
24	9
25	9
26	9
27	9
28	9
29	9
30	9
31	9
32	9
33	9
34	9
35	9
36	9
37	9
38	9
39	9
40	9
41	9
42	9
43	9
44	9
45	9
46	9
47	9
48	9
49	9
50	9
51	9
52	9
53	9
54	9
55	9
56	9
57	9
58	9
59	9
60	9
61	9
62	9
63	9
64	9
65	9
66	9
67	9
68	9
69	9
70	9
71	9
72	9
73	9
74	9
75	9
76	9
77	9
78	9
79	9
80	9
81	9
82	9
83	9
84	9
85	9
86	9
87	9
88	9
89	9
90	9
91	9
92	9
93	9
94	9
95	9
96	9
97	9
98	9
99	9
100	9
101	9
102	9
103	9
104	9
105	9
106	9
107	9
108	9
109	9
110	9
111	9
112	9
113	9
114	9
115	9
116	9
117	9
118	9
119	9
120	13
121	13
122	13
123	13
124	13
125	13
126	13
127	13
128	13
129	13
130	13
131	13
132	13
133	13
134	13
135	13
136	13
137	13
138	13
139	13
140	13
141	13
142	13
143	13
144	13
145	13
146	13
147	13
148	13
149	13
150	13
151	13
152	13
153	13
154	13
155	13
156	13
157	13
158	13
159	13
160	13
161	13
162	13
163	13
164	13
165	13
166	13
167	13
168	13
169	13
170	13
171	13
172	13
173	13
174	13
175	13
176	13
177	13
178	13
179	13
180	13
181	13
182	13
183	13
184	13
185	13
186	13
187	13
188	13
189	13
190	13
191	13
192	13
193	13
194	13
195	13
196	13
197	13
198	13
199	13
200	13
201	13
202	13
203	13
204	13
205	13
206	13
207	13
208	13
209	13
210	13
211	13
212	13
213	13
214	13
215	13
216	13
217	13
218	13
219	13
220	13
221	13
222	13
223	13
224	13
225	13
226	13
227	13
228	13
229	13
230	13
231	13
232	13
233	13
234	13
235	13
236	13
237	13
238	13
239	19
240	19
241	19
242	19
243	19
244	19
245	19
246	19
247	19
248	19
249	19
250	19
251	19
252	19
253	19
254	19
255	19
256	19
257	19
258	19
259	19
260	19
261	19
262	19
263	19
264	19
265	19
266	19
267	19
268	19
269	19
270	19
271	19
272	19
273	19
274	19
275	19
276	19
277	19
278	19
279	19
280	19
281	19
282	19
283	19
284	19
285	19
286	19
287	19
288	19
289	19
290	19
291	19
292	19
293	19
294	19
295	19
296	19
297	19
298	19
299	19
300	19
301	19
302	19
303	19
304	19
305	19
306	19
307	19
308	19
309	19
310	19
311	19
312	19
313	19
314	19
315	19
316	19
317	19
318	19
319	19
320	19
321	19
322	19
323	19
324	19
325	19
326	19
327	19
328	19
329	19
330	19
331	19
332	19
333	19
334	19
335	19
336	19
337	19
338	19
339	19
340	19
341	19
342	19
343	19
344	19
345	19
346	19
347	19
348	19
349	19
350	19
351	19
352	19
353	19
354	19
355	19
356	19
357	19
358	26
359	26
360	26
361	26
362	26
363	26
364	26
365	26
366	26
367	26
368	26
369	26
370	26
371	26
372	26
373	26
374	26
375	26
376	26
377	26
378	26
379	26
380	26
381	26
382	26
383	26
384	26
385	26
386	26
387	26
388	26
389	26
390	26
391	26
392	26
393	26
394	26
395	26
396	26
397	26
398	26
399	26
400	26
401	26
402	26
403	26
404	26
405	26
406	26
407	26
408	26
409	26
410	26
411	26
412	26
413	26
414	26
415	26
416	26
417	26
418	26
419	26
420	26
421	26
422	26
423	26
424	26
425	26
426	26
427	26
428	26
429	26
430	26
431	26
432	26
433	26
434	26
435	26
436	26
437	26
438	26
439	26
440	26
441	26
442	26
443	26
444	26
445	26
446	26
447	26
448	26
449	26
450	26
451	26
452	26
453	26
454	26
455	26
456	26
457	26
458	26
459	26
460	26
461	26
462	26
463	26
464	26
465	26
466	26
467	26
468	26
469	26
470	26
471	26
472	26
473	26
474	26
475	26
476	26
477	37
478	37
479	37
480	37
481	37
482	37
483	37
484	37
485	37
486	37
487	37
488	37
489	37
490	37
491	37
492	37
493	37
494	37
495	37
496	37
497	37
498	37
499	37
500	37
501	37
502	37
503	37
504	37
505	37
506	37
507	37
508	37
509	37
510	37
511	37
512	37
513	37
514	37
515	37
516	37
517	37
518	37
519	37
520	37
521	37
522	37
523	37
524	37
525	37
526	37
527	37
528	37
529	37
530	37
531	37
532	37
533	37
534	37
535	37
536	37
537	37
538	37
539	37
540	37
541	37
542	37
543	37
544	37
545	37
546	37
547	37
548	37
549	37
550	37
551	37
552	37
553	37
554	37
555	37
556	37
557	37
558	37
559	37
560	37
561	37
562	37
563	37
564	37
565	37
566	37
567	37
568	37
569	37
570	37
571	37
572	37
573	37
574	37
575	37
576	37
577	37
578	37
579	37
580	37
581	37
582	37
583	37
584	37
585	37
586	37
587	37
588	37
589	37
590	37
591	37
592	37
593	37
594	37
595	37
VEHICLES_FIXED_COST_SECTION
1	97300
2	97300
3	97300
4	97300
5	97300
6	97300
7	97300
8	97300
9	97300
10	97300
11	97300
12	97300
13	97300
14	97300
15	97300
16	97300
17	97300
18	97300
19	97300
20	97300
21	97300
22	97300
23	97300
24	97300
25	97300
26	97300
27	97300
28	97300
29	97300
30	97300
31	97300
32	97300
33	97300
34	97300
35	97300
36	97300
37	97300
38	97300
39	97300
40	97300
41	97300
42	97300
43	97300
44	97300
45	97300
46	97300
47	97300
48	97300
49	97300
50	97300
51	97300
52	97300
53	97300
54	97300
55	97300
56	97300
57	97300
58	97300
59	97300
60	97300
61	97300
62	97300
63	97300
64	97300
65	97300
66	97300
67	97300
68	97300
69	97300
70	97300
71	97300
72	97300
73	97300
74	97300
75	97300
76	97300
77	97300
78	97300
79	97300
80	97300
81	97300
82	97300
83	97300
84	97300
85	97300
86	97300
87	97300
88	97300
89	97300
90	97300
91	97300
92	97300
93	97300
94	97300
95	97300
96	97300
97	97300
98	97300
99	97300
100	97300
101	97300
102	97300
103	97300
104	97300
105	97300
106	97300
107	97300
108	97300
109	97300
110	97300
111	97300
112	97300
113	97300
114	97300
115	97300
116	97300
117	97300
118	97300
119	97300
120	148800
121	148800
122	148800
123	148800
124	148800
125	148800
126	148800
127	148800
128	148800
129	148800
130	148800
131	148800
132	148800
133	148800
134	148800
135	148800
136	148800
137	148800
138	148800
139	148800
140	148800
141	148800
142	148800
143	148800
144	148800
145	148800
146	148800
147	148800
148	148800
149	148800
150	148800
151	148800
152	148800
153	148800
154	148800
155	148800
156	148800
157	148800
158	148800
159	148800
160	148800
161	148800
162	148800
163	148800
164	148800
165	148800
166	148800
167	148800
168	148800
169	148800
170	148800
171	148800
172	148800
173	148800
174	148800
175	148800
176	148800
177	148800
178	148800
179	148800
180	148800
181	148800
182	148800
183	148800
184	148800
185	148800
186	148800
187	148800
188	148800
189	148800
190	148800
191	148800
192	148800
193	148800
194	148800
195	148800
196	148800
197	148800
198	148800
199	148800
200	148800
201	148800
202	148800
203	148800
204	148800
205	148800
206	148800
207	148800
208	148800
209	148800
210	148800
211	148800
212	148800
213	148800
214	148800
215	148800
216	148800
217	148800
218	148800
219	148800
220	148800
221	148800
222	148800
223	148800
224	148800
225	148800
226	148800
227	148800
228	148800
229	148800
230	148800
231	148800
232	148800
233	148800
234	148800
235	148800
236	148800
237	148800
238	148800
239	228000
240	228000
241	228000
242	228000
243	228000
244	228000
245	228000
246	228000
247	228000
248	228000
249	228000
250	228000
251	228000
252	228000
253	228000
254	228000
255	228000
256	228000
257	228000
258	228000
259	228000
260	228000
261	228000
262	228000
263	228000
264	228000
265	228000
266	228000
267	228000
268	228000
269	228000
270	228000
271	228000
272	228000
273	228000
274	228000
275	228000
276	228000
277	228000
278	228000
279	228000
280	228000
281	228000
282	228000
283	228000
284	228000
285	228000
286	228000
287	228000
288	228000
289	228000
290	228000
291	228000
292	228000
293	228000
294	228000
295	228000
296	228000
297	228000
298	228000
299	228000
300	228000
301	228000
302	228000
303	228000
304	228000
305	228000
306	228000
307	228000
308	228000
309	228000
310	228000
311	228000
312	228000
313	228000
314	228000
315	228000
316	228000
317	228000
318	228000
319	228000
320	228000
321	228000
322	228000
323	228000
324	228000
325	228000
326	228000
327	228000
328	228000
329	228000
330	228000
331	228000
332	228000
333	228000
334	228000
335	228000
336	228000
337	228000
338	228000
339	228000
340	228000
341	228000
342	228000
343	228000
344	228000
345	228000
346	228000
347	228000
348	228000
349	228000
350	228000
351	228000
352	228000
353	228000
354	228000
355	228000
356	228000
357	228000
358	347000
359	347000
360	347000
361	347000
362	347000
363	347000
364	347000
365	347000
366	347000
367	347000
368	347000
369	347000
370	347000
371	347000
372	347000
373	347000
374	347000
375	347000
376	347000
377	347000
378	347000
379	347000
380	347000
381	347000
382	347000
383	347000
384	347000
385	347000
386	347000
387	347000
388	347000
389	347000
390	347000
391	347000
392	347000
393	347000
394	347000
395	347000
396	347000
397	347000
398	347000
399	347000
400	347000
401	347000
402	347000
403	347000
404	347000
405	347000
406	347000
407	347000
408	347000
409	347000
410	347000
411	347000
412	347000
413	347000
414	347000
415	347000
416	347000
417	347000
418	347000
419	347000
420	347000
421	347000
422	347000
423	347000
424	347000
425	347000
426	347000
427	347000
428	347000
429	347000
430	347000
431	347000
432	347000
433	347000
434	347000
435	347000
436	347000
437	347000
438	347000
439	347000
440	347000
441	347000
442	347000
443	347000
444	347000
445	347000
446	347000
447	347000
448	347000
449	347000
450	347000
451	347000
452	347000
453	347000
454	347000
455	347000
456	347000
457	347000
458	347000
459	347000
460	347000
461	347000
462	347000
463	347000
464	347000
465	347000
466	347000
467	347000
468	347000
469	347000
470	347000
471	347000
472	347000
473	347000
474	347000
475	347000
476	347000
477	520900
478	520900
479	520900
480	520900
481	520900
482	520900
483	520900
484	520900
485	520900
486	520900
487	520900
488	520900
489	520900
490	520900
491	520900
492	520900
493	520900
494	520900
495	520900
496	520900
497	520900
498	520900
499	520900
500	520900
501	520900
502	520900
503	520900
504	520900
505	520900
506	520900
507	520900
508	520900
509	520900
510	520900
511	520900
512	520900
513	520900
514	520900
515	520900
516	520900
517	520900
518	520900
519	520900
520	520900
521	520900
522	520900
523	520900
524	520900
525	520900
526	520900
527	520900
528	520900
529	520900
530	520900
531	520900
532	520900
533	520900
534	520900
535	520900
536	520900
537	520900
538	520900
539	520900
540	520900
541	520900
542	520900
543	520900
544	520900
545	520900
546	520900
547	520900
548	520900
549	520900
550	520900
551	520900
552	520900
553	520900
554	520900
555	520900
556	520900
557	520900
558	520900
559	520900
560	520900
561	520900
562	520900
563	520900
564	520900
565	520900
566	520900
567	520900
568	520900
569	520900
570	520900
571	520900
572	520900
573	520900
574	520900
575	520900
576	520900
577	520900
578	520900
579	520900
580	520900
581	520900
582	520900
583	520900
584	520900
585	520900
586	520900
587	520900
588	520900
589	520900
590	520900
591	520900
592	520900
593	520900
594	520900
595	520900
VEHICLES_UNIT_DISTANCE_COST_SECTION
1	100
2	100
3	100
4	100
5	100
6	100
7	100
8	100
9	100
10	100
11	100
12	100
13	100
14	100
15	100
16	100
17	100
18	100
19	100
20	100
21	100
22	100
23	100
24	100
25	100
26	100
27	100
28	100
29	100
30	100
31	100
32	100
33	100
34	100
35	100
36	100
37	100
38	100
39	100
40	100
41	100
42	100
43	100
44	100
45	100
46	100
47	100
48	100
49	100
50	100
51	100
52	100
53	100
54	100
55	100
56	100
57	100
58	100
59	100
60	100
61	100
62	100
63	100
64	100
65	100
66	100
67	100
68	100
69	100
70	100
71	100
72	100
73	100
74	100
75	100
76	100
77	100
78	100
79	100
80	100
81	100
82	100
83	100
84	100
85	100
86	100
87	100
88	100
89	100
90	100
91	100
92	100
93	100
94	100
95	100
96	100
97	100
98	100
99	100
100	100
101	100
102	100
103	100
104	100
105	100
106	100
107	100
108	100
109	100
110	100
111	100
112	100
113	100
114	100
115	100
116	100
117	100
118	100
119	100
120	100
121	100
122	100
123	100
124	100
125	100
126	100
127	100
128	100
129	100
130	100
131	100
132	100
133	100
134	100
135	100
136	100
137	100
138	100
139	100
140	100
141	100
142	100
143	100
144	100
145	100
146	100
147	100
148	100
149	100
150	100
151	100
152	100
153	100
154	100
155	100
156	100
157	100
158	100
159	100
160	100
161	100
162	100
163	100
164	100
165	100
166	100
167	100
168	100
169	100
170	100
171	100
172	100
173	100
174	100
175	100
176	100
177	100
178	100
179	100
180	100
181	100
182	100
183	100
184	100
185	100
186	100
187	100
188	100
189	100
190	100
191	100
192	100
193	100
194	100
195	100
196	100
197	100
198	100
199	100
200	100
201	100
202	100
203	100
204	100
205	100
206	100
207	100
208	100
209	100
210	100
211	100
212	100
213	100
214	100
215	100
216	100
217	100
218	100
219	100
220	100
221	100
222	100
223	100
224	100
225	100
226	100
227	100
228	100
229	100
230	100
231	100
232	100
233	100
234	100
235	100
236	100
237	100
238	100
239	100
240	100
241	100
242	100
243	100
244	100
245	100
246	100
247	100
248	100
249	100
250	100
251	100
252	100
253	100
254	100
255	100
256	100
257	100
258	100
259	100
260	100
261	100
262	100
263	100
264	100
265	100
266	100
267	100
268	100
269	100
270	100
271	100
272	100
273	100
274	100
275	100
276	100
277	100
278	100
279	100
280	100
281	100
282	100
283	100
284	100
285	100
286	100
287	100
288	100
289	100
290	100
291	100
292	100
293	100
294	100
295	100
296	100
297	100
298	100
299	100
300	100
301	100
302	100
303	100
304	100
305	100
306	100
307	100
308	100
309	100
310	100
311	100
312	100
313	100
314	100
315	100
316	100
317	100
318	100
319	100
320	100
321	100
322	100
323	100
324	100
325	100
326	100
327	100
328	100
329	100
330	100
331	100
332	100
333	100
334	100
335	100
336	100
337	100
338	100
339	100
340	100
341	100
342	100
343	100
344	100
345	100
346	100
347	100
348	100
349	100
350	100
351	100
352	100
353	100
354	100
355	100
356	100
357	100
358	100
359	100
360	100
361	100
362	100
363	100
364	100
365	100
366	100
367	100
368	100
369	100
370	100
371	100
372	100
373	100
374	100
375	100
376	100
377	100
378	100
379	100
380	100
381	100
382	100
383	100
384	100
385	100
386	100
387	100
388	100
389	100
390	100
391	100
392	100
393	100
394	100
395	100
396	100
397	100
398	100
399	100
400	100
401	100
402	100
403	100
404	100
405	100
406	100
407	100
408	100
409	100
410	100
411	100
412	100
413	100
414	100
415	100
416	100
417	100
418	100
419	100
420	100
421	100
422	100
423	100
424	100
425	100
426	100
427	100
428	100
429	100
430	100
431	100
432	100
433	100
434	100
435	100
436	100
437	100
438	100
439	100
440	100
441	100
442	100
443	100
444	100
445	100
446	100
447	100
448	100
449	100
450	100
451	100
452	100
453	100
454	100
455	100
456	100
457	100
458	100
459	100
460	100
461	100
462	100
463	100
464	100
465	100
466	100
467	100
468	100
469	100
470	100
471	100
472	100
473	100
474	100
475	100
476	100
477	100
478	100
479	100
480	100
481	100
482	100
483	100
484	100
485	100
486	100
487	100
488	100
489	100
490	100
491	100
492	100
493	100
494	100
495	100
496	100
497	100
498	100
499	100
500	100
501	100
502	100
503	100
504	100
505	100
506	100
507	100
508	100
509	100
510	100
511	100
512	100
513	100
514	100
515	100
516	100
517	100
518	100
519	100
520	100
521	100
522	100
523	100
524	100
525	100
526	100
527	100
528	100
529	100
530	100
531	100
532	100
533	100
534	100
535	100
536	100
537	100
538	100
539	100
540	100
541	100
542	100
543	100
544	100
545	100
546	100
547	100
548	100
549	100
550	100
551	100
552	100
553	100
554	100
555	100
556	100
557	100
558	100
559	100
560	100
561	100
562	100
563	100
564	100
565	100
566	100
567	100
568	100
569	100
570	100
571	100
572	100
573	100
574	100
575	100
576	100
577	100
578	100
579	100
580	100
581	100
582	100
583	100
584	100
585	100
586	100
587	100
588	100
589	100
590	100
591	100
592	100
593	100
594	100
595	100
DEPOT_SECTION
1
EOF
